# initialization
units                   metal
atom_style              atomic
pair_style eam
boundary                p p p
# System definition
lattice fcc 3.6258
region                  myreg block 0 72 0 72 0 72
create_box              1 myreg
create_atoms            1 region myreg
# Simulation settings
pair_coeff * * Cu_u3.eam
dump                    mydmp all atom 1000 dumpLattice.lammpstrj
# Run
thermo          10
minimize        1.0e-4 1.0e-6 1000 10000

fix                     mynvt all nvt temp 3000.0 3000.0 0.1
timestep                0.001
thermo                  100
run                     100000
