# LAMMPS Input file generated by Avogadro
# Title

# Initialization
units          real
boundary       p p p
atom_style     full
pair_style hybrid eam lj/cut 10
bond_style harmonic
angle_style harmonic
dihedral_style fourier

read_data      TraPPEsolution.lmps
replicate           2 2 2
region myreg block -11.408100 11.256100 -11.089700 11.164300 -11.530100 11.063700
create_atoms            5 random 1 251251 myreg

pair_coeff 1 1 lj/cut 0.1947 3.75
pair_coeff 2 2 lj/cut 0.0914 3.95
pair_coeff 3 3 lj/cut 0.0934 3.73
pair_coeff 4 4 lj/cut 0.1689 3.675
pair_coeff 6 6 lj/cut 0.0726  3.156097798883966       # os
pair_coeff 7 7 lj/cut 0.1003  3.695   # c2 from TraPPE
pair_coeff 8 8 lj/cut 0.0988  3.3152123099438304      # c
pair_coeff 9 9 lj/cut 0.2295  3.6940224448971026      # p4
pair_coeff 5 5 eam Cu_u3.eam
pair_coeff 1 5 lj/cut 0.9586 2.981
pair_coeff 2 5 lj/cut 0.6568 3.06
pair_coeff 3 5 lj/cut 0.664 2.973
pair_coeff 4 5 lj/cut 0.8929 2.951
pair_coeff 5 6 lj/cut 0.5854 2.735
pair_coeff 5 7 lj/cut 0.688 2.959
pair_coeff 5 8 lj/cut 0.6829 2.803
pair_coeff 5 9 lj/cut 23 1.959977

# Settings

write_data     insertCu.data


